(set-logic QF_S)
(declare-fun var0 () String)
(assert (RegexIn var0 (RegexConcat (RegexStar (RegexUnion (Str2Reg "000") (Str2Reg "111"))) (RegexConcat (RegexUnion (RegexStar (Str2Reg "222")) (RegexStar (Str2Reg "3"))) (RegexConcat (RegexPlus (RegexPlus (Str2Reg "444"))) (RegexConcat (RegexStar (RegexStar (Str2Reg "55"))) (RegexConcat (RegexUnion (RegexStar (Str2Reg "66")) (RegexStar (Str2Reg "777"))) (RegexConcat (RegexPlus (RegexStar (Str2Reg "88"))) (RegexConcat (RegexPlus (RegexPlus (Str2Reg "99"))) (RegexConcat (RegexUnion (RegexPlus (Str2Reg "aaa")) (RegexPlus (Str2Reg "bbb"))) (RegexConcat (RegexUnion (RegexUnion (Str2Reg "cc") (Str2Reg "d")) (RegexUnion (Str2Reg "ee") (Str2Reg "f"))) (RegexConcat (RegexPlus (RegexUnion (Str2Reg "gg") (Str2Reg "hh"))) (RegexConcat (RegexStar (RegexStar (Str2Reg "iii"))) (RegexConcat (RegexStar (RegexUnion (Str2Reg "jjj") (Str2Reg "kk"))) (RegexConcat (RegexPlus (RegexPlus (Str2Reg "lll"))) (RegexConcat (RegexPlus (RegexPlus (Str2Reg "mm"))) (RegexConcat (RegexStar (RegexUnion (Str2Reg "nnn") (Str2Reg "oo"))) (RegexConcat (RegexUnion (RegexStar (Str2Reg "pp")) (RegexStar (Str2Reg "q"))) (RegexConcat (RegexPlus (RegexStar (Str2Reg "rrr"))) (RegexConcat (RegexStar (RegexUnion (Str2Reg "ss") (Str2Reg "t"))) (RegexConcat (RegexStar (RegexStar (Str2Reg "uuu"))) (RegexConcat (RegexStar (RegexUnion (Str2Reg "v") (Str2Reg "www"))) (RegexConcat (RegexUnion (RegexPlus (Str2Reg "x")) (RegexPlus (Str2Reg "yyy"))) (RegexConcat (RegexUnion (RegexStar (Str2Reg "zz")) (RegexStar (Str2Reg "AAA"))) (RegexConcat (RegexUnion (RegexStar (Str2Reg "BB")) (RegexStar (Str2Reg "CCC"))) (RegexConcat (RegexPlus (RegexStar (Str2Reg "DDD"))) (RegexConcat (RegexUnion (RegexStar (Str2Reg "EE")) (RegexStar (Str2Reg "F"))) (RegexConcat (RegexStar (RegexStar (Str2Reg "G"))) (RegexConcat (RegexPlus (RegexUnion (Str2Reg "HHH") (Str2Reg "III"))) (RegexConcat (RegexUnion (RegexPlus (Str2Reg "JJ")) (RegexPlus (Str2Reg "K"))) (RegexConcat (RegexPlus (RegexPlus (Str2Reg "LL"))) (RegexConcat (RegexUnion (RegexUnion (Str2Reg "MMM") (Str2Reg "N")) (RegexUnion (Str2Reg "OOO") (Str2Reg "P"))) (RegexConcat (RegexStar (RegexStar (Str2Reg "Q"))) (RegexConcat (RegexUnion (RegexPlus (Str2Reg "RR")) (RegexPlus (Str2Reg "SSS"))) (RegexConcat (RegexUnion (RegexPlus (Str2Reg "TT")) (RegexPlus (Str2Reg "UUU"))) (RegexConcat (RegexUnion (RegexUnion (Str2Reg "VVV") (Str2Reg "W")) (RegexUnion (Str2Reg "X") (Str2Reg "YYY"))) (RegexConcat (RegexPlus (RegexPlus (Str2Reg "Z"))) (RegexConcat (RegexStar (RegexPlus (Str2Reg "!!!"))) (RegexConcat (RegexStar (RegexUnion (Str2Reg "\"") (Str2Reg "##"))) (RegexConcat (RegexStar (RegexUnion (Str2Reg "$$$") (Str2Reg "%%%"))) (RegexConcat (RegexPlus (RegexStar (Str2Reg "&&"))) (RegexConcat (RegexPlus (RegexPlus (Str2Reg "''"))) (RegexConcat (RegexPlus (RegexUnion (Str2Reg "((") (Str2Reg ")))"))) (RegexConcat (RegexPlus (RegexStar (Str2Reg "***"))) (RegexConcat (RegexUnion (RegexUnion (Str2Reg "++") (Str2Reg ",")) (RegexUnion (Str2Reg "--") (Str2Reg ".."))) (RegexConcat (RegexUnion (RegexStar (Str2Reg "//")) (RegexStar (Str2Reg ":::"))) (RegexConcat (RegexUnion (RegexStar (Str2Reg ";")) (RegexStar (Str2Reg "<<"))) (RegexConcat (RegexUnion (RegexUnion (Str2Reg "==") (Str2Reg ">>>")) (RegexUnion (Str2Reg "??") (Str2Reg "@"))) (RegexConcat (RegexUnion (RegexPlus (Str2Reg "[[")) (RegexPlus (Str2Reg "\\\\"))) (RegexConcat (RegexUnion (RegexStar (Str2Reg "]")) (RegexStar (Str2Reg "^"))) (RegexConcat (RegexPlus (RegexStar (Str2Reg "___"))) (RegexConcat (RegexUnion (RegexStar (Str2Reg "```")) (RegexStar (Str2Reg "{"))) (RegexConcat (RegexUnion (RegexPlus (Str2Reg "||")) (RegexPlus (Str2Reg "}}}"))) (RegexConcat (RegexUnion (RegexUnion (Str2Reg "~") (Str2Reg "000")) (RegexUnion (Str2Reg "111") (Str2Reg "2"))) (RegexConcat (RegexStar (RegexUnion (Str2Reg "3") (Str2Reg "444"))) (RegexConcat (RegexPlus (RegexPlus (Str2Reg "5"))) (RegexConcat (RegexStar (RegexPlus (Str2Reg "6"))) (RegexConcat (RegexPlus (RegexStar (Str2Reg "7"))) (RegexUnion (RegexUnion (Str2Reg "88") (Str2Reg "999")) (RegexUnion (Str2Reg "aaa") (Str2Reg "b")))))))))))))))))))))))))))))))))))))))))))))))))))))))))))))
(check-sat)